WARNING: for repeatability, setting FPU to use double precision
============================[ Problem Statistics ]=============================
|                                                                             |
|  Number of variables:          1080                                         |
|  Number of clauses:            7287                                         |
|  Parse time:                   0.00 s                                       |
|                                                                             |
c ============================[ Search Statistics ]==============================
c | Conflicts |          ORIGINAL         |          LEARNT          | Progress |
c |           |    Vars  Clauses Literals |    Limit  Clauses Lit/Cl |          |
c ===============================================================================
c Switched to VSIDS.
c Switched to LRB.
c Switched to VSIDS.
c Switched to LRB.
c Switched to VSIDS.
c Switched to LRB.
c Switched to VSIDS.
c Switched to LRB.
c Switched to VSIDS.
c ===============================================================================
restarts                  : 2320
conflicts                 : 2031802        (3992 /sec)
decisions                 : 2911757        (0.00 % random) (5721 /sec)
propagations              : 561625092      (1103437 /sec)
conflict literals         : 36165833       (47.51 % deleted)

conflicts w/ DIP found    : 859486         (42.30 % of conflicts)
conflicts w/ dangerous DIP: 0              (0.00 % of conflicts)
conflicts w/ DIP-learning : 19190          (0.94 % of conflicts)
decisions on ext vars     : 2140107        (73.50 % of decisions)
total ext vars            : 2010        
tried delete ext vars     : 848         
deleted ext vars          : 816         
max ext vars              : 1298        

Memory used               : 74.00 MB
CPU time                  : 508.978 s
DIP computation time      : 15.4316 s (3.03 % of total time)
ER_sel time               : 1.8001 s
ER_add time               : 0.00679 s
ER_delC time              : 0 s
ER_delV time              : 0.093734 s
ER_sub time               : 2.24083 s
ER_stat time              : 0 s

UNSATISFIABLE
